80 8
78 4
81 27
12 16
71 49
2 88
65 67
77 95
16 48
76 37
13 79
93 69
48 52
62 100
95 40
52 48
92 43
2 39
68 72
63 24
100 92
82 94
38 28
81 100
82 13
95 65
80 19
71 20
65 69
74 93
5 69
56 16
28 74
38 17
50 49
50 5
83 99
47 25
65 97
91 22
28 50
21 64
61 8
68 70
12 75
95 19
81 34
81 60
46 53
43 39
88 87
10 89
44 71
20 93
51 96
50 59
92 75
3 13
1 98
89 2
59 68
86 64
93 31
41 39
19 53
48 92
5 38
37 34
13 9
7 12
24 27
44 68
64 94
1 71
35 7
88 98
87 31
5 71
30 28
74 85
6 92
483 583
419 511
718 889
507 569
731 852
709 828
697 851
599 700
